% seed = 0

mint = 39;
% maxt = 211;

nActs = 92;
dur = [0,3,3,2,2,2,2,1,3,3,2,3,5,4,3,2,4,6,2,3,3,3,2,2,4,1,1,3,4,2,1,2,2,1,2,3,3,1,1,3,1,4,2,1,2,1,1,2,4,3,2,4,1,3,2,4,3,2,3,3,3,3,2,1,1,2,3,3,2,1,2,1,2,1,4,2,3,2,2,2,2,3,3,1,3,2,2,1,2,1,2,0];

nSkills = 12;
sreq = [| 0,0,0,0,0,0,0,0,0,0,0,0,
	| 0,0,0,0,1,0,0,0,0,0,0,0,
	| 0,0,0,0,0,0,0,1,1,0,1,0,
	| 0,0,0,0,0,3,0,0,0,1,0,0,
	| 0,0,0,0,0,1,0,1,0,0,1,0,
	| 0,0,0,0,0,1,1,0,1,0,0,0,
	| 0,0,0,0,0,0,0,0,0,2,1,0,
	| 0,0,1,0,1,0,0,0,0,0,0,0,
	| 0,0,0,0,0,0,0,0,0,0,1,0,
	| 0,0,0,0,0,0,0,0,0,0,2,0,
	| 0,0,0,0,0,1,0,0,0,0,1,0,
	| 0,0,0,0,0,0,2,0,0,0,0,0,
	| 0,0,0,0,1,0,0,0,0,0,1,0,
	| 0,0,0,0,0,0,0,1,0,0,1,0,
	| 0,0,0,1,0,0,0,0,0,0,0,0,
	| 0,0,0,0,0,1,0,0,1,0,0,0,
	| 0,0,0,0,0,0,0,0,0,1,1,0,
	| 0,0,0,0,0,1,0,1,0,1,0,0,
	| 0,0,0,0,1,1,0,0,0,1,0,0,
	| 0,0,0,0,0,1,0,0,1,0,0,0,
	| 0,0,0,0,0,0,0,0,1,0,1,0,
	| 0,0,0,0,0,0,0,0,0,1,0,0,
	| 0,0,0,0,0,0,0,0,1,0,1,0,
	| 0,0,0,0,1,0,0,0,0,1,0,0,
	| 0,0,0,0,0,1,0,0,2,0,1,0,
	| 0,0,0,0,1,1,0,0,0,1,1,0,
	| 0,0,0,1,0,1,0,0,0,1,1,0,
	| 0,0,0,0,0,0,1,0,0,0,0,0,
	| 0,0,0,0,0,0,0,1,0,0,1,0,
	| 0,0,0,0,0,0,1,0,0,0,1,0,
	| 0,0,0,0,0,0,0,0,0,0,1,0,
	| 0,0,0,0,0,1,0,1,1,1,0,0,
	| 1,0,0,0,0,0,0,0,0,1,0,0,
	| 0,0,0,0,0,1,0,0,3,0,0,0,
	| 0,0,0,0,0,0,0,0,1,2,0,0,
	| 0,0,0,0,0,0,1,0,1,2,0,0,
	| 0,0,0,1,0,0,1,0,0,0,0,0,
	| 0,0,0,0,0,1,0,0,1,0,0,0,
	| 0,0,0,0,1,1,0,0,0,0,2,0,
	| 0,0,0,0,1,0,0,0,2,0,1,0,
	| 0,0,0,0,0,0,0,0,2,0,1,0,
	| 0,0,0,0,0,0,0,0,1,0,0,0,
	| 0,0,0,0,0,0,0,0,1,1,1,0,
	| 0,0,0,0,0,1,1,1,0,0,0,0,
	| 0,0,0,0,0,1,1,0,0,0,2,0,
	| 0,0,0,0,0,0,1,0,1,0,1,0,
	| 0,0,1,0,0,0,0,0,1,0,1,0,
	| 0,0,0,0,0,0,0,0,0,0,1,0,
	| 0,0,0,0,0,0,0,0,1,0,0,0,
	| 0,0,0,0,0,0,0,1,0,0,0,0,
	| 0,0,0,0,0,1,0,0,0,0,3,0,
	| 0,0,0,0,0,1,1,0,0,1,0,0,
	| 0,0,0,0,0,0,0,0,1,0,2,0,
	| 0,0,0,0,0,0,0,1,2,0,0,0,
	| 0,0,0,0,0,0,0,0,1,0,1,0,
	| 0,0,0,1,0,0,0,0,1,0,0,0,
	| 0,0,0,0,0,0,1,0,1,0,0,0,
	| 0,0,0,0,0,1,1,0,0,0,1,0,
	| 0,0,0,0,0,0,0,0,2,1,0,0,
	| 0,0,0,0,0,0,0,0,0,0,2,0,
	| 0,0,0,0,0,0,0,1,0,0,0,0,
	| 0,0,0,0,0,0,0,0,1,1,0,0,
	| 0,0,0,0,0,0,0,0,1,0,1,0,
	| 0,0,0,0,0,0,0,0,1,1,2,0,
	| 0,0,0,0,0,0,1,0,1,0,2,0,
	| 0,0,0,0,1,0,0,0,0,0,1,0,
	| 0,0,0,0,1,0,0,0,1,1,0,0,
	| 0,0,1,0,0,1,1,0,0,0,1,0,
	| 0,0,0,0,0,0,0,1,0,0,2,0,
	| 0,0,0,0,0,1,0,0,0,0,1,0,
	| 0,0,0,1,0,0,0,0,1,0,2,0,
	| 0,0,0,0,0,0,0,0,1,0,0,0,
	| 0,1,0,0,1,1,0,0,1,0,0,0,
	| 0,0,0,0,0,0,1,0,0,0,1,0,
	| 0,0,0,0,0,1,0,2,0,0,0,1,
	| 0,0,0,0,0,0,0,1,0,0,0,0,
	| 0,0,0,1,0,0,0,0,0,0,1,0,
	| 0,0,0,0,0,1,1,0,0,0,1,0,
	| 0,0,0,0,1,0,0,0,1,1,1,0,
	| 0,0,0,0,0,0,0,0,0,0,2,0,
	| 0,0,0,0,0,0,0,0,0,1,2,0,
	| 0,0,0,0,0,0,0,1,1,1,0,0,
	| 0,0,0,0,0,0,1,0,0,1,0,0,
	| 0,0,0,0,0,0,0,0,1,0,1,0,
	| 0,0,0,0,2,1,0,0,0,0,1,0,
	| 0,0,0,0,0,1,1,0,1,1,0,0,
	| 0,0,0,0,1,0,0,0,0,0,3,0,
	| 0,0,0,0,0,0,1,0,1,0,0,0,
	| 0,0,0,0,1,0,1,0,2,0,0,0,
	| 0,0,0,0,0,0,0,1,1,0,0,0,
	| 0,0,1,0,0,0,1,0,0,1,1,0,
	| 0,0,0,0,0,0,0,0,0,0,0,0, |];

% SumOfsreq = 235;

nResources = 13;
mastery = [| false,false,false,false,false,false,false,false,false,true,true,true,
	| false,false,false,false,false,false,true,true,true,false,false,false,
	| false,false,false,false,false,true,true,true,true,false,false,false,
	| false,false,false,false,false,false,true,true,true,false,false,false,
	| false,false,false,false,false,false,false,false,false,false,true,true,
	| false,false,false,false,true,true,false,true,true,true,true,true,
	| true,true,true,true,true,true,false,false,true,false,false,false,
	| false,false,false,false,false,false,false,false,true,false,false,false,
	| false,false,false,false,false,true,false,false,false,false,false,false,
	| false,false,false,false,false,false,false,false,false,true,true,true,
	| false,false,false,false,false,false,false,false,false,true,true,true,
	| false,false,false,true,true,true,false,false,false,false,true,true,
	| false,false,false,false,false,false,false,false,true,false,false,false, |];

nPrecs = 166;
pred = [1,1,1,2,2,2,3,3,3,4,4,5,5,5,6,7,7,7,8,8,8,9,10,10,11,12,13,13,13,14,14,14,15,15,15,16,16,17,17,17,18,18,18,19,19,20,20,20,21,21,21,22,22,22,23,23,23,24,24,25,25,26,26,27,27,27,28,29,29,29,30,31,31,32,32,33,33,33,34,34,35,36,36,36,37,37,37,38,39,40,41,42,42,43,44,44,45,45,46,46,47,48,49,49,49,50,51,52,53,54,54,55,55,56,57,57,58,58,59,60,60,61,61,61,62,63,63,63,64,64,65,65,65,66,66,67,68,68,68,69,69,70,71,71,72,73,73,74,75,76,77,78,79,80,81,82,83,84,85,85,86,87,88,89,90,91];
succ = [2,3,4,20,5,40,10,6,14,50,7,17,52,15,8,9,11,13,33,12,22,86,12,79,37,81,18,30,38,34,55,16,60,29,31,51,36,58,19,47,51,23,32,59,54,25,28,21,57,36,24,26,45,74,90,27,60,85,29,42,63,81,54,69,63,31,50,35,68,47,71,41,76,42,37,57,43,51,70,48,88,65,61,39,67,45,64,49,50,46,80,58,46,44,65,60,82,75,53,71,79,57,59,87,79,74,53,70,73,61,86,75,56,74,77,88,69,78,62,62,63,66,91,72,81,67,77,78,71,72,73,66,76,90,67,83,76,69,72,83,70,87,73,77,75,88,80,80,78,83,84,87,90,82,82,84,89,85,91,86,89,89,91,92,92,92];

nUnrels = 2687;
unpred = [2,2,2,2,2,2,2,2,2,2,2,2,2,2,2,2,2,2,2,2,2,2,2,2,2,2,2,2,2,2,2,2,3,3,3,3,3,3,3,3,3,3,3,3,3,3,3,3,3,3,3,3,3,3,3,3,3,3,3,3,3,3,3,3,3,3,3,3,3,4,4,4,4,4,4,4,4,4,4,4,4,4,4,4,4,4,4,4,4,4,4,4,4,4,4,4,4,4,4,4,4,4,4,4,4,4,5,5,5,5,5,5,5,5,5,5,5,5,5,5,5,5,5,5,5,5,5,5,5,5,5,5,5,5,5,5,5,5,5,5,5,5,5,5,5,5,5,5,5,5,5,5,5,6,6,6,6,6,6,6,6,6,6,6,6,6,6,6,6,6,6,6,6,6,6,6,6,6,6,6,6,6,6,6,6,6,6,6,6,6,6,6,6,6,6,6,6,6,6,6,7,7,7,7,7,7,7,7,7,7,7,7,7,7,7,7,7,7,7,7,7,7,7,7,7,7,7,7,7,7,7,7,7,7,7,7,7,8,8,8,8,8,8,8,8,8,8,8,8,8,8,8,8,8,8,8,8,8,8,8,8,8,8,8,8,8,8,8,8,8,8,8,8,8,8,8,8,8,8,8,8,8,8,9,9,9,9,9,9,9,9,9,9,9,9,9,9,9,9,9,9,9,9,9,9,9,9,9,9,9,9,9,9,9,9,9,9,9,9,9,9,9,9,9,9,9,9,9,9,9,9,9,9,9,9,9,9,9,9,9,9,9,9,9,9,9,9,9,9,9,9,9,9,9,9,9,9,9,9,9,9,9,9,10,10,10,10,10,10,10,10,10,10,10,10,10,10,10,10,10,10,10,10,10,10,10,10,10,10,10,10,10,10,10,10,10,10,10,10,10,10,10,10,10,10,10,10,10,10,10,10,10,10,10,10,10,10,10,10,10,10,10,10,10,10,10,10,10,10,10,10,10,10,10,11,11,11,11,11,11,11,11,11,11,11,11,11,11,11,11,11,11,11,11,11,11,11,11,11,11,11,11,11,11,11,11,11,11,11,11,11,11,11,11,11,11,11,11,11,11,11,11,11,11,11,11,11,11,11,11,11,11,11,11,12,12,12,12,12,12,12,12,12,12,12,12,12,12,12,12,12,12,12,12,12,12,12,12,12,12,12,12,12,12,12,12,12,12,12,12,12,12,12,12,12,12,12,12,12,12,12,12,12,12,12,12,12,12,12,12,12,12,12,12,12,12,12,12,12,12,12,12,12,12,12,12,13,13,13,13,13,13,13,13,13,13,13,13,13,13,13,13,13,13,13,13,13,13,13,13,13,13,13,13,13,13,13,13,13,13,14,14,14,14,14,14,14,14,14,14,14,14,14,14,14,14,14,14,14,14,14,14,14,14,14,14,14,14,14,14,14,14,14,14,14,14,14,14,14,14,14,14,14,15,15,15,15,15,15,15,15,15,15,15,15,15,15,15,15,15,15,15,15,15,15,15,15,15,15,15,15,15,15,15,15,15,15,15,15,15,15,15,15,15,15,15,15,15,15,16,16,16,16,16,16,16,16,16,16,16,16,16,16,16,16,16,16,16,16,16,16,16,16,16,16,16,16,16,16,16,16,16,16,16,16,16,16,16,16,16,16,16,16,16,16,16,16,16,17,17,17,17,17,17,17,17,17,17,17,17,17,17,17,17,17,17,17,17,17,17,17,17,17,17,17,17,17,17,17,17,17,17,17,17,17,17,17,17,17,17,17,17,17,17,17,17,17,18,18,18,18,18,18,18,18,18,18,18,18,18,18,18,18,18,18,18,18,18,18,18,18,18,18,18,18,18,18,18,18,18,18,18,19,19,19,19,19,19,19,19,19,19,19,19,19,19,19,19,19,19,19,19,19,19,19,19,19,19,19,19,19,19,19,19,19,19,19,19,19,19,19,19,19,19,19,19,19,19,19,19,19,19,19,19,19,20,20,20,20,20,20,20,20,20,20,20,20,20,20,20,20,20,20,20,20,20,20,20,20,20,20,20,20,21,21,21,21,21,21,21,21,21,21,21,21,21,21,21,21,21,21,21,21,21,21,21,21,21,21,21,21,21,21,21,21,21,21,21,21,22,22,22,22,22,22,22,22,22,22,22,22,22,22,22,22,22,22,22,22,22,22,22,22,22,22,22,22,22,22,22,22,22,22,22,22,22,22,22,22,22,22,22,22,22,22,22,22,23,23,23,23,23,23,23,23,23,23,23,23,23,23,23,23,23,23,23,23,23,23,23,23,23,23,23,23,23,23,23,23,23,23,23,23,23,23,23,23,23,23,23,23,23,24,24,24,24,24,24,24,24,24,24,24,24,24,24,24,24,24,24,24,24,24,24,24,24,24,24,24,24,24,24,24,24,24,24,24,24,24,24,24,24,24,24,24,24,24,24,24,24,25,25,25,25,25,25,25,25,25,25,25,25,25,25,25,25,25,25,25,25,25,25,25,25,25,25,25,25,25,25,25,25,25,25,25,25,25,25,25,25,25,25,25,25,26,26,26,26,26,26,26,26,26,26,26,26,26,26,26,26,26,26,26,26,26,26,26,26,26,26,26,26,26,26,26,26,26,26,26,26,26,26,26,26,26,26,26,26,26,26,26,26,27,27,27,27,27,27,27,27,27,27,27,27,27,27,27,27,27,27,27,27,27,27,27,27,27,27,27,27,27,27,27,27,27,27,27,27,27,27,27,27,27,27,27,27,27,27,28,28,28,28,28,28,28,28,28,28,28,28,28,28,28,28,28,28,28,28,28,28,28,28,28,28,28,28,28,28,28,28,28,28,28,28,28,28,28,28,28,28,28,28,28,28,28,28,28,28,28,28,28,28,29,29,29,29,29,29,29,29,29,29,29,29,29,29,29,29,29,29,29,29,29,29,29,29,29,29,29,29,29,29,29,29,29,29,29,29,29,29,29,29,29,29,29,29,29,29,30,30,30,30,30,30,30,30,30,30,30,30,30,30,30,30,30,30,30,30,30,30,30,30,30,30,30,30,30,30,30,30,30,30,30,30,30,30,30,30,30,30,30,30,30,30,30,30,30,30,31,31,31,31,31,31,31,31,31,31,31,31,31,31,31,31,31,31,31,31,31,31,31,31,31,31,31,31,31,31,31,31,31,31,31,31,31,31,31,31,31,31,31,31,31,31,31,31,31,31,32,32,32,32,32,32,32,32,32,32,32,32,32,32,32,32,32,32,32,32,32,32,32,32,32,32,32,32,32,32,32,32,32,33,33,33,33,33,33,33,33,33,33,33,33,33,33,33,33,33,33,33,33,33,33,33,33,33,33,33,33,33,33,33,34,34,34,34,34,34,34,34,34,34,34,34,34,34,34,34,34,34,34,34,34,34,34,34,34,34,34,34,34,34,34,34,34,34,34,34,34,34,34,34,34,34,34,34,34,34,35,35,35,35,35,35,35,35,35,35,35,35,35,35,35,35,35,35,35,35,35,35,35,35,35,35,35,35,35,35,35,35,35,35,35,35,35,35,35,35,35,35,35,35,35,35,35,35,35,35,35,35,35,35,36,36,36,36,36,36,36,36,36,36,36,36,36,36,36,36,36,36,36,36,36,36,36,36,36,36,36,36,36,36,36,36,37,37,37,37,37,37,37,37,37,37,37,37,37,37,37,37,37,37,37,37,37,37,37,37,37,37,37,37,37,37,37,37,37,37,37,38,38,38,38,38,38,38,38,38,38,38,38,38,38,38,38,38,38,38,38,38,38,38,38,38,38,38,38,38,38,38,38,38,38,38,38,38,38,38,38,39,39,39,39,39,39,39,39,39,39,39,39,39,39,39,39,39,39,39,39,39,39,39,39,39,39,39,39,39,39,39,39,39,39,39,39,39,39,39,39,39,39,39,40,40,40,40,40,40,40,40,40,40,40,40,40,40,40,40,40,40,40,40,40,40,40,40,40,40,40,40,40,40,40,40,40,40,40,40,40,40,41,41,41,41,41,41,41,41,41,41,41,41,41,41,41,41,41,41,41,41,41,41,41,41,41,41,41,41,41,41,41,41,41,41,41,41,41,41,41,41,41,41,41,42,42,42,42,42,42,42,42,42,42,42,42,42,42,42,42,42,42,42,42,42,42,42,42,42,42,42,42,42,42,43,43,43,43,43,43,43,43,43,43,43,43,43,43,43,43,43,43,43,43,43,43,43,43,43,44,44,44,44,44,44,44,44,44,44,44,44,44,44,44,44,44,44,44,44,44,44,44,44,44,45,45,45,45,45,45,45,45,45,45,45,45,45,45,45,45,45,45,45,45,45,45,45,45,45,45,45,45,45,45,45,45,45,45,45,45,45,46,46,46,46,46,46,46,46,46,46,46,46,46,46,46,46,46,46,46,46,46,46,46,46,46,46,46,46,46,46,46,46,46,47,47,47,47,47,47,47,47,47,47,47,47,47,47,47,47,47,47,47,47,47,47,47,47,47,47,47,47,47,47,47,47,47,47,47,47,47,47,47,47,47,47,48,48,48,48,48,48,48,48,48,48,48,48,48,48,48,48,48,48,48,48,48,48,48,48,48,48,48,48,48,48,48,48,48,48,48,49,49,49,49,49,49,49,49,49,49,49,49,49,49,49,49,49,49,49,49,49,49,49,49,49,49,49,49,49,49,50,50,50,50,50,50,50,50,50,50,50,50,50,50,50,50,50,50,50,50,50,50,50,50,50,50,50,50,50,50,50,50,50,51,51,51,51,51,51,51,51,51,51,51,51,51,51,51,51,51,51,51,51,51,51,51,51,51,51,51,51,51,51,52,52,52,52,52,52,52,52,52,52,52,52,52,52,52,52,52,52,52,52,52,52,52,52,52,52,52,52,52,52,52,52,52,52,52,52,53,53,53,53,53,53,53,53,53,53,53,53,53,53,53,53,53,53,53,53,53,53,53,53,53,53,53,53,53,54,54,54,54,54,54,54,54,54,54,54,54,54,54,54,54,54,54,54,54,54,54,54,54,54,55,55,55,55,55,55,55,55,55,55,55,55,55,55,55,55,55,55,55,55,55,55,55,55,56,56,56,56,56,56,56,56,56,56,56,56,56,56,56,56,56,56,56,56,56,56,56,56,56,56,56,57,57,57,57,57,57,57,57,57,57,57,57,57,57,57,57,57,57,57,57,57,57,57,57,57,57,57,58,58,58,58,58,58,58,58,58,58,58,58,58,58,58,58,58,58,58,58,58,58,58,58,58,58,58,59,59,59,59,59,59,59,59,59,59,59,59,59,59,59,59,59,59,59,59,59,59,59,59,60,60,60,60,60,60,60,60,60,60,60,60,60,60,60,60,60,61,61,61,61,61,61,61,61,61,61,61,61,61,61,61,61,61,61,61,61,62,62,62,62,62,62,62,62,62,62,62,62,62,62,62,62,62,62,62,62,62,62,63,63,63,63,63,63,63,63,63,63,63,63,63,63,63,63,63,63,64,64,64,64,64,64,64,64,64,64,64,64,65,65,65,65,65,65,65,65,65,65,65,65,66,66,66,66,66,66,66,66,66,66,66,66,66,66,66,66,66,66,66,66,66,67,67,67,67,67,67,67,67,67,67,67,67,67,67,67,67,67,67,67,67,67,67,68,68,68,68,68,68,68,68,68,68,68,68,68,68,69,69,69,69,69,69,69,69,69,69,69,69,69,69,69,69,69,69,70,70,70,70,70,70,70,70,70,70,70,70,70,70,70,70,70,70,70,71,71,71,71,71,71,71,71,71,71,72,72,72,72,72,72,72,72,72,72,72,72,72,72,72,73,73,73,73,73,73,73,73,73,73,74,74,74,74,74,74,74,74,74,74,75,75,75,75,75,75,75,75,75,75,75,75,75,76,76,76,76,76,76,76,76,76,76,76,76,76,77,77,77,77,77,77,77,77,77,78,78,78,78,78,78,78,78,78,78,78,79,79,79,79,79,79,79,79,79,79,79,80,80,80,80,80,81,81,81,81,82,82,82,82,83,83,83,83,83,83,83,84,84,84,85,85,85,86,86,86,86,87,87,87,88,88,89,89,90];
unsucc = [3,4,6,7,8,9,10,11,12,13,14,16,18,22,23,26,27,30,32,33,34,37,38,43,44,45,48,49,51,55,56,64,4,5,7,9,11,13,15,17,18,19,20,21,23,24,25,27,28,29,30,31,32,35,37,38,40,41,42,46,47,49,52,58,59,64,68,69,71,5,6,8,10,12,14,15,16,17,19,20,21,22,24,25,26,28,29,33,34,35,36,39,40,43,44,47,48,52,54,55,56,57,61,65,66,68,6,7,8,9,10,11,12,13,14,16,18,20,21,22,23,24,25,26,27,28,30,32,33,34,36,37,38,39,40,42,43,44,45,46,48,49,50,51,53,55,56,57,64,65,71,73,74,7,9,10,11,13,14,15,16,17,18,19,20,21,23,24,25,27,28,29,30,31,32,34,35,36,37,38,39,40,41,42,46,47,48,49,50,52,55,56,58,59,64,68,69,70,71,79,8,10,12,14,15,16,17,19,20,21,22,24,25,26,28,29,33,34,35,36,39,40,43,44,47,48,50,52,54,55,56,57,61,65,66,68,74,9,10,11,13,14,15,16,17,18,19,20,21,23,24,25,27,28,29,30,31,32,34,35,36,37,38,39,40,41,42,46,47,48,49,50,52,55,56,58,59,64,68,69,70,71,79,10,11,12,13,14,15,16,17,18,19,20,21,22,23,24,25,26,27,28,29,30,31,32,33,34,35,36,37,38,39,40,41,42,43,44,45,46,47,48,49,50,51,52,53,54,55,56,57,58,59,60,61,62,63,64,65,66,67,68,69,70,71,72,73,74,75,76,77,78,79,80,81,82,83,84,85,87,88,90,91,11,13,14,15,16,17,18,19,20,21,22,23,24,25,26,27,28,29,30,31,32,33,34,35,36,37,38,39,40,41,42,43,44,45,46,47,48,49,50,51,52,53,54,55,56,57,58,59,60,61,62,63,64,65,66,67,68,69,70,71,72,73,74,75,76,77,78,80,83,87,88,12,13,14,15,16,17,18,19,20,21,22,23,24,25,26,27,28,29,30,31,32,33,34,35,36,38,39,40,41,42,43,44,46,47,48,49,50,51,52,53,54,55,56,57,58,59,60,61,62,63,65,66,68,69,70,74,76,79,81,90,13,14,15,16,17,18,19,20,21,22,23,24,25,26,27,28,29,30,31,32,33,34,35,36,37,38,39,40,41,42,43,44,45,46,47,48,49,50,51,52,53,54,55,56,57,58,59,60,61,62,63,64,65,66,67,68,69,70,71,72,73,74,75,76,77,78,79,80,83,87,88,90,14,15,16,17,19,20,21,22,24,25,26,28,29,33,34,35,36,39,40,43,44,47,48,50,52,54,55,56,57,61,65,66,68,74,15,17,18,19,20,21,22,23,24,25,26,27,28,29,30,31,32,33,35,37,38,40,41,42,43,44,45,46,47,49,52,54,58,59,60,62,63,64,68,69,71,79,81,16,17,18,19,20,21,22,23,24,25,26,27,28,30,32,33,34,36,37,38,39,40,42,43,44,45,46,48,49,50,51,52,53,54,55,56,57,58,59,61,64,65,66,71,73,74,17,18,19,20,21,22,23,24,25,26,27,28,29,30,31,32,33,34,35,37,38,40,41,42,43,44,45,46,47,48,49,52,54,55,56,57,58,59,60,62,63,64,68,69,70,71,77,79,81,18,20,21,22,23,24,25,26,27,28,29,30,31,32,33,34,35,36,37,38,39,40,41,42,43,44,45,46,48,49,50,51,52,53,55,56,57,60,63,64,65,68,71,73,74,76,77,80,88,19,20,21,22,24,25,26,28,29,30,33,34,35,36,38,39,40,43,44,47,48,49,50,52,54,55,56,57,59,61,65,66,68,74,79,20,21,22,23,24,25,26,27,28,29,30,31,32,33,34,35,36,37,38,39,40,41,42,43,44,45,46,47,48,49,50,51,52,53,55,56,57,58,60,63,64,65,68,69,70,71,73,74,76,77,79,80,88,22,23,26,27,30,31,32,33,34,37,38,40,41,43,44,45,48,49,51,52,54,55,56,59,60,62,64,81,22,23,25,26,27,28,30,31,32,33,34,37,38,40,41,42,43,44,45,46,48,49,51,52,53,54,55,56,58,59,60,62,63,64,71,81,23,24,25,27,28,29,30,31,32,33,34,35,36,37,38,39,40,41,42,43,44,46,47,48,49,50,51,52,53,55,56,57,58,59,60,62,63,64,65,68,69,70,71,73,76,77,79,88,24,25,26,28,29,30,32,33,34,35,36,37,38,39,40,42,43,44,45,46,47,48,49,50,51,52,53,54,55,56,57,58,59,61,64,65,66,68,71,72,73,74,75,79,88,25,26,27,28,30,31,32,33,34,36,37,38,39,40,41,42,43,44,45,46,48,49,50,51,52,53,54,55,56,57,58,59,60,61,62,63,64,65,66,67,71,73,74,77,80,81,82,84,26,27,28,29,30,31,32,33,34,35,36,37,38,39,40,41,43,44,45,47,48,49,50,51,52,54,55,56,57,59,60,61,62,64,65,66,68,72,74,75,76,79,81,90,27,28,29,30,31,32,33,34,35,36,37,38,39,40,41,42,43,44,45,46,47,48,49,50,51,52,53,55,56,57,58,59,60,62,63,64,65,68,69,70,71,73,74,76,77,79,80,88,28,29,30,32,33,34,35,36,37,38,39,40,42,43,44,45,46,47,48,49,50,51,52,53,54,55,56,57,58,59,60,61,62,64,65,66,68,71,72,73,74,75,79,81,88,90,29,30,31,32,33,34,35,36,37,38,39,40,41,42,43,44,45,46,47,48,49,51,52,53,54,55,56,57,58,59,60,61,62,63,64,65,66,67,68,69,70,71,72,73,75,76,77,78,79,81,83,87,88,90,30,31,32,33,34,36,37,38,39,40,41,42,43,44,45,46,48,49,50,51,52,53,54,55,56,57,58,59,60,61,62,63,64,65,66,67,71,73,74,77,80,81,82,84,85,86,31,32,33,34,35,36,37,38,39,40,41,42,43,44,45,46,47,48,49,50,51,52,53,54,55,56,57,58,59,60,61,62,63,64,65,66,67,68,69,70,72,74,75,76,78,79,81,83,87,90,32,33,34,35,36,37,38,39,40,42,43,44,45,46,47,48,49,50,51,52,53,54,55,56,57,58,59,60,61,62,63,64,65,66,67,68,69,70,71,72,73,74,75,77,78,79,81,87,88,90,33,34,35,36,38,39,40,41,43,44,47,48,49,50,51,52,54,55,56,57,59,60,61,62,63,65,66,68,74,76,79,81,90,34,35,36,37,38,39,40,41,42,45,46,47,48,49,50,52,54,55,56,58,59,61,64,68,69,70,71,72,74,75,79,35,36,37,38,39,40,41,42,43,44,45,46,47,49,50,51,52,53,54,55,56,58,59,60,61,62,63,64,65,66,67,68,69,71,72,73,74,75,76,78,79,80,81,82,83,90,36,37,38,39,40,41,42,43,44,45,46,47,48,49,50,51,52,53,54,55,56,57,58,59,60,61,62,63,64,65,66,67,68,69,70,71,72,73,74,75,76,77,78,79,80,81,82,83,84,85,86,87,89,90,37,38,40,41,42,43,44,45,46,47,48,49,51,52,53,54,55,56,57,58,59,60,62,63,64,68,69,70,71,77,79,81,38,39,40,41,42,43,44,46,47,48,49,50,51,52,53,54,55,56,57,58,59,60,61,62,63,65,66,68,69,70,74,76,79,81,90,39,40,41,42,43,44,45,46,47,48,50,51,52,53,54,55,56,57,58,60,61,63,64,65,66,67,68,69,70,71,72,73,74,75,76,77,78,80,83,88,40,41,42,43,44,45,46,47,48,49,51,52,53,54,55,56,57,58,59,60,61,62,63,64,65,66,67,68,69,70,71,72,73,75,76,77,78,79,81,83,87,88,90,41,42,43,44,45,47,48,49,50,51,52,54,55,56,57,58,59,60,61,62,63,64,65,66,67,68,69,70,72,74,75,76,78,79,81,83,87,90,42,43,44,45,46,47,48,49,50,51,52,53,54,55,56,57,58,59,60,61,62,63,64,65,66,67,68,69,70,71,72,73,74,75,76,77,78,79,81,83,87,88,90,43,44,45,47,48,49,50,51,52,54,55,56,57,59,60,61,62,63,64,65,66,67,68,72,74,75,76,79,81,90,45,46,47,48,49,50,51,52,53,54,55,56,57,58,59,61,64,68,69,70,71,72,74,75,79,45,46,47,48,49,50,51,52,53,54,55,56,57,58,59,61,64,68,69,70,71,72,74,75,79,46,47,48,49,50,51,52,53,54,55,56,57,58,59,60,61,62,63,64,65,66,67,68,69,70,71,72,73,74,76,77,79,80,81,83,88,90,47,48,49,50,51,52,54,55,56,57,58,59,60,61,62,63,64,65,66,67,68,69,70,72,74,75,76,78,79,81,83,87,90,48,49,50,51,52,53,54,55,56,57,58,59,60,61,62,63,64,65,66,67,68,69,70,71,72,73,74,75,76,77,78,80,81,82,83,84,85,86,87,88,89,91,49,50,51,52,53,54,55,56,58,59,60,61,62,63,64,65,66,67,68,69,70,71,72,73,74,75,76,78,79,80,81,82,83,87,90,50,51,52,53,54,55,56,57,58,60,61,63,64,65,66,67,68,69,70,71,72,73,74,75,76,77,78,80,83,88,51,52,53,54,55,56,57,58,59,60,61,62,63,64,65,66,67,68,69,70,71,72,73,75,76,77,78,79,81,83,87,88,90,52,54,55,56,57,58,59,60,61,62,63,64,65,66,67,68,69,70,71,72,74,75,76,77,78,79,81,83,87,90,53,54,55,56,57,58,59,60,61,62,63,64,65,66,67,68,69,71,72,73,74,75,76,77,78,79,80,81,82,83,84,85,86,88,90,91,54,55,56,57,58,59,60,61,62,63,64,65,66,67,68,69,70,71,72,74,75,76,77,78,79,81,83,87,90,55,56,57,58,59,60,62,63,64,65,68,69,70,71,73,74,76,77,79,80,81,82,84,85,88,57,58,59,60,61,62,63,64,65,66,67,68,69,70,71,72,73,76,77,79,81,83,88,90,57,58,59,60,61,62,63,64,65,66,67,68,69,70,71,72,73,75,76,77,78,79,81,83,87,88,90,58,59,60,61,62,63,64,65,66,67,68,69,70,71,72,73,74,75,76,78,79,80,81,82,83,87,90,59,60,61,62,63,64,65,66,67,68,71,72,73,74,75,76,77,79,80,81,82,84,85,86,88,90,91,60,61,63,64,65,66,67,68,69,70,71,72,73,74,75,76,77,78,79,80,83,87,88,90,61,64,65,66,68,69,70,71,72,73,74,75,76,79,80,88,90,62,63,64,65,68,69,70,71,73,74,76,77,79,80,81,82,84,85,86,88,63,64,65,66,67,68,69,70,71,72,73,74,75,76,77,78,79,80,83,87,88,90,64,65,66,68,69,70,71,72,73,74,75,76,79,80,81,82,88,90,65,66,67,68,69,70,74,76,79,81,83,90,68,69,70,71,72,74,75,77,78,79,81,87,68,69,70,71,72,73,74,75,76,77,78,79,80,81,82,84,85,86,87,88,91,68,69,70,71,72,73,74,75,76,77,78,79,80,81,82,84,85,86,87,88,90,91,71,73,74,77,79,80,81,82,84,85,86,88,90,91,71,72,73,74,75,76,77,78,79,80,81,82,84,85,86,88,90,91,71,72,73,74,75,76,77,78,79,80,81,82,83,84,85,86,88,90,91,72,74,75,76,78,79,81,83,87,90,73,74,76,77,79,80,81,82,83,84,85,86,88,90,91,74,75,76,77,78,79,81,83,87,90,75,76,77,78,79,81,83,87,88,90,76,77,79,80,81,82,83,84,85,86,88,90,91,77,78,79,80,81,82,84,85,86,87,88,90,91,78,79,80,81,82,83,87,88,90,79,80,81,82,83,84,85,86,88,90,91,80,81,82,83,84,85,86,87,88,89,91,81,83,87,88,90,83,87,88,90,83,87,88,90,84,85,86,87,88,90,91,87,88,90,87,88,90,87,88,90,91,88,90,91,89,90,90,91,91];

USEFUL_RES = [{},
	{6,7,12},
	{1,2,3,4,5,6,7,8,10,11,12,13},
	{1,3,6,7,9,10,11,12},
	{1,2,3,4,5,6,7,9,10,11,12},
	{2,3,4,6,7,8,9,12,13},
	{1,5,6,10,11,12},
	{6,7,12},
	{1,5,6,10,11,12},
	{1,5,6,10,11,12},
	{1,3,5,6,7,9,10,11,12},
	{2,3,4},
	{1,5,6,7,10,11,12},
	{1,2,3,4,5,6,10,11,12},
	{7,12},
	{2,3,4,6,7,8,9,12,13},
	{1,5,6,10,11,12},
	{1,2,3,4,6,7,9,10,11,12},
	{1,3,6,7,9,10,11,12},
	{2,3,4,6,7,8,9,12,13},
	{1,2,3,4,5,6,7,8,10,11,12,13},
	{1,6,10,11},
	{1,2,3,4,5,6,7,8,10,11,12,13},
	{1,6,7,10,11,12},
	{1,2,3,4,5,6,7,8,9,10,11,12,13},
	{1,3,5,6,7,9,10,11,12},
	{1,3,5,6,7,9,10,11,12},
	{2,3,4},
	{1,2,3,4,5,6,10,11,12},
	{1,2,3,4,5,6,10,11,12},
	{1,5,6,10,11,12},
	{1,2,3,4,6,7,8,9,10,11,12,13},
	{1,6,7,10,11},
	{2,3,4,6,7,8,9,12,13},
	{1,2,3,4,6,7,8,10,11,13},
	{1,2,3,4,6,7,8,10,11,13},
	{2,3,4,7,12},
	{2,3,4,6,7,8,9,12,13},
	{1,3,5,6,7,9,10,11,12},
	{1,2,3,4,5,6,7,8,10,11,12,13},
	{1,2,3,4,5,6,7,8,10,11,12,13},
	{2,3,4,6,7,8,13},
	{1,2,3,4,5,6,7,8,10,11,12,13},
	{2,3,4,6,7,9,12},
	{1,2,3,4,5,6,7,9,10,11,12},
	{1,2,3,4,5,6,7,8,10,11,12,13},
	{1,2,3,4,5,6,7,8,10,11,12,13},
	{1,5,6,10,11,12},
	{2,3,4,6,7,8,13},
	{2,3,4,6},
	{1,3,5,6,7,9,10,11,12},
	{1,2,3,4,6,7,9,10,11,12},
	{1,2,3,4,5,6,7,8,10,11,12,13},
	{2,3,4,6,7,8,13},
	{1,2,3,4,5,6,7,8,10,11,12,13},
	{2,3,4,6,7,8,12,13},
	{2,3,4,6,7,8,13},
	{1,2,3,4,5,6,7,9,10,11,12},
	{1,2,3,4,6,7,8,10,11,13},
	{1,5,6,10,11,12},
	{2,3,4,6},
	{1,2,3,4,6,7,8,10,11,13},
	{1,2,3,4,5,6,7,8,10,11,12,13},
	{1,2,3,4,5,6,7,8,10,11,12,13},
	{1,2,3,4,5,6,7,8,10,11,12,13},
	{1,5,6,7,10,11,12},
	{1,2,3,4,6,7,8,10,11,12,13},
	{1,2,3,4,5,6,7,9,10,11,12},
	{1,2,3,4,5,6,10,11,12},
	{1,3,5,6,7,9,10,11,12},
	{1,2,3,4,5,6,7,8,10,11,12,13},
	{2,3,4,6,7,8,13},
	{2,3,4,6,7,8,9,12,13},
	{1,2,3,4,5,6,10,11,12},
	{1,2,3,4,5,6,7,9,10,11,12},
	{2,3,4,6},
	{1,5,6,7,10,11,12},
	{1,2,3,4,5,6,7,9,10,11,12},
	{1,2,3,4,5,6,7,8,10,11,12,13},
	{1,5,6,10,11,12},
	{1,5,6,10,11,12},
	{1,2,3,4,6,7,8,10,11,13},
	{1,2,3,4,6,10,11},
	{1,2,3,4,5,6,7,8,10,11,12,13},
	{1,3,5,6,7,9,10,11,12},
	{1,2,3,4,6,7,8,9,10,11,12,13},
	{1,5,6,7,10,11,12},
	{2,3,4,6,7,8,13},
	{2,3,4,6,7,8,12,13},
	{2,3,4,6,7,8,13},
	{1,2,3,4,5,6,7,10,11,12},
	{}];

POTENTIAL_ACT = [{3,4,5,7,9,10,11,13,14,17,18,19,21,22,23,24,25,26,27,29,30,31,32,33,35,36,39,40,41,43,45,46,47,48,51,52,53,55,58,59,60,62,63,64,65,66,67,68,69,70,71,74,75,77,78,79,80,81,82,83,84,85,86,87,91},
	{3,5,6,12,14,16,18,20,21,23,25,28,29,30,32,34,35,36,37,38,40,41,42,43,44,45,46,47,49,50,52,53,54,55,56,57,58,59,61,62,63,64,65,67,68,69,71,72,73,74,75,76,78,79,82,83,84,86,88,89,90,91},
	{3,4,5,6,11,12,14,16,18,19,20,21,23,25,26,27,28,29,30,32,34,35,36,37,38,39,40,41,42,43,44,45,46,47,49,50,51,52,53,54,55,56,57,58,59,61,62,63,64,65,67,68,69,70,71,72,73,74,75,76,78,79,82,83,84,85,86,88,89,90,91},
	{3,5,6,12,14,16,18,20,21,23,25,28,29,30,32,34,35,36,37,38,40,41,42,43,44,45,46,47,49,50,52,53,54,55,56,57,58,59,61,62,63,64,65,67,68,69,71,72,73,74,75,76,78,79,82,83,84,86,88,89,90,91},
	{3,5,7,9,10,11,13,14,17,21,23,25,26,27,29,30,31,39,40,41,43,45,46,47,48,51,53,55,58,60,63,64,65,66,68,69,70,71,74,75,77,78,79,80,81,84,85,87,91},
	{2,3,4,5,6,7,8,9,10,11,13,14,16,17,18,19,20,21,22,23,24,25,26,27,29,30,31,32,33,34,35,36,38,39,40,41,42,43,44,45,46,47,48,49,50,51,52,53,54,55,56,57,58,59,60,61,62,63,64,65,66,67,68,69,70,71,72,73,74,75,76,77,78,79,80,81,82,83,84,85,86,87,88,89,90,91},
	{2,3,4,5,6,8,11,13,15,16,18,19,20,21,23,24,25,26,27,32,33,34,35,36,37,38,39,40,41,42,43,44,45,46,47,49,51,52,53,54,55,56,57,58,59,62,63,64,65,66,67,68,70,71,72,73,75,77,78,79,82,84,85,86,87,88,89,90,91},
	{3,6,16,20,21,23,25,32,34,35,36,38,40,41,42,43,46,47,49,53,54,55,56,57,59,62,63,64,65,67,71,72,73,79,82,84,86,88,89,90},
	{4,5,6,11,16,18,19,20,25,26,27,32,34,38,39,44,45,51,52,58,68,70,73,75,78,85,86},
	{3,4,5,7,9,10,11,13,14,17,18,19,21,22,23,24,25,26,27,29,30,31,32,33,35,36,39,40,41,43,45,46,47,48,51,52,53,55,58,59,60,62,63,64,65,66,67,68,69,70,71,74,75,77,78,79,80,81,82,83,84,85,86,87,91},
	{3,4,5,7,9,10,11,13,14,17,18,19,21,22,23,24,25,26,27,29,30,31,32,33,35,36,39,40,41,43,45,46,47,48,51,52,53,55,58,59,60,62,63,64,65,66,67,68,69,70,71,74,75,77,78,79,80,81,82,83,84,85,86,87,91},
	{2,3,4,5,6,7,8,9,10,11,13,14,15,16,17,18,19,20,21,23,24,25,26,27,29,30,31,32,34,37,38,39,40,41,43,44,45,46,47,48,51,52,53,55,56,58,60,63,64,65,66,67,68,69,70,71,73,74,75,77,78,79,80,81,84,85,86,87,89,91},
	{3,6,16,20,21,23,25,32,34,35,36,38,40,41,42,43,46,47,49,53,54,55,56,57,59,62,63,64,65,67,71,72,73,79,82,84,86,88,89,90}];
